NAME: bip_40_0
TYPE: TSP
COMMENT: bip_40_0
DIMENSION: 40
EDGE_WEIGHT_TYPE: EUC_2D
NODE_COORD_SECTION
1 35 27
2 98 76
3 77 39
4 69 81
5 57 9
6 40 94
7 66 33
8 48 42
9 41 49
10 71 87
11 53 81
12 18 61
13 0 68
14 22 89
15 84 86
16 20 73
17 36 50
18 79 4
19 1 15
20 82 78
21 439 496
22 488 408
23 455 477
24 448 442
25 445 468
26 419 460
27 459 450
28 477 402
29 489 469
30 406 462
31 414 417
32 438 433
33 481 432
34 453 408
35 473 401
36 492 499
37 424 418
38 486 401
39 427 449
40 453 467
